(set-logic HORN)
(declare-fun state (Int Int (Array Int Int) (Array Int Int) Int Int Int Int Int Int Int Int Int (Array Int Int) (Array Int Int) Int Int Int Int Int Int Int Int Int Int Int Int Int Int Int (Array Int Int) (Array Int Int) (Array Int Int) (Array Int Int) Int Int Int Int (Array Int Int) (Array Int Int) Int Int Int Int Int Int Int Int Int Int Int Int Int Int Int Int Int Int Int Int Bool Bool Bool Bool (Array Int Int) (Array Int Int)) Bool)
(assert (forall ((|J2| Int) (|B| Int) (|C| (Array Int Int)) (|D| (Array Int Int)) (|E| Int) (|F| Int) (|G| Int) (|K2| Int) (|I| Int) (|J| Int) (|K| Int) (|L| Int) (|M| Int) (|L2| (Array Int Int)) (|O| (Array Int Int)) (|P| Int) (|Q| Int) (|R| Int) (|S| Int) (|T| Int) (|U| Int) (|V| Int) (|M2| Int) (|X| Int) (|Y| Int) (|Z| Int) (|A1| Int) (|B1| Int) (|N2| Int) (|D1| Int) (|O2| (Array Int Int)) (|F1| (Array Int Int)) (|G1| (Array Int Int)) (|H1| (Array Int Int)) (|I1| Int) (|J1| Int) (|K1| Int) (|L1| Int) (|M1| (Array Int Int)) (|N1| (Array Int Int)) (|O1| Int) (|P1| Int) (|Q1| Int) (|R1| Int) (|S1| Int) (|T1| Int) (|U1| Int) (|V1| Int) (|W1| Int) (|X1| Int) (|Y1| Int) (|Z1| Int) (|A2| Int) (|B2| Int) (|C2| Int) (|D2| Int) (|E2| Int) (|F2| Int) (|G2| Int) (|H2| Int) (|I2| Bool) (|.loc.4| Bool) (|.loc.5| Bool) (|.loc.6| Bool) (|J2_0| (Array Int Int)) (|K2_0| (Array Int Int)) (|.x.460| Int) (|.x.462| (Array Int Int)) (|.x.463| Int) (|.x.464| Int) (|.x.465| Int) (|.x.467| Int) (|.x.468| Int) (|.x.469| Int) (|.x.470| Int) (|.x.471| Int) (|.x.473| (Array Int Int)) (|.x.474| Int) (|.x.475| Int) (|.x.476| Int) (|.x.477| Int) (|.x.478| Int) (|.x.479| Int) (|.x.480| Int) (|.x.482| Int) (|.x.483| Int) (|.x.484| Int) (|.x.485| Int) (|.x.486| Int) (|.x.488| Int) (|.x.490| (Array Int Int)) (|.x.492| (Array Int Int)) (|.x.493| Int) (|.x.494| Int) (|.x.495| Int) (|.x.498| (Array Int Int)) (|.x.496| Int) (|.x.506| Int) (|.x.461| (Array Int Int)) (|.x.517| Int) (|.x.491| (Array Int Int)) (|.x.497| (Array Int Int)) (|.x.515| Int) (|.x.514| Int) (|.x.499| Int) (|.x.459| Int) (|.x.504| Int) (|.x.508| Int) (|.x.509| Int) (|.x.502| Int) (|.x.501| Int) (|.x.487| Int) (|.x.507| Int) (|.x.518| Int) (|.x.472| (Array Int Int)) (|.x.489| (Array Int Int)) (|.x.500| Int) (|.x.516| Int) (|I2_7| Bool) (|.x.466| Int) (|.x.481| Int) (|.x.512| Int) (|.x.511| Int) (|.x.513| Int) (|.x.510| Int) (|.x.505| Int) (|.x.503| Int) (|.loc.7| Bool) (|.loc.8| Bool) (|.loc.9| Bool) (|.xtv.1| (Array Int Int)) (|.xtv.2| (Array Int Int))) (=> (and (and (and (not .loc.4) (not .loc.5)) (not .loc.6)) (and (and (and (and (and (and (and (and (and (= M1 N1) (not I2)) (= K2 I)) (= J2 B)) (= N2 D1)) (= M2 X)) (= L2 O)) (= O2 F1)) (= G1 H1)) (= C D))) (state |J2| |B| |C| |D| |E| |F| |G| |K2| |I| |J| |K| |L| |M| |L2| |O| |P| |Q| |R| |S| |T| |U| |V| |M2| |X| |Y| |Z| |A1| |B1| |N2| |D1| |O2| |F1| |G1| |H1| |I1| |J1| |K1| |L1| |M1| |N1| |O1| |P1| |Q1| |R1| |S1| |T1| |U1| |V1| |W1| |X1| |Y1| |Z1| |A2| |B2| |C2| |D2| |E2| |F2| |G2| |H2| |I2| |.loc.4| |.loc.5| |.loc.6| |J2_0| |K2_0|))))
(assert (forall ((|J2| Int) (|B| Int) (|C| (Array Int Int)) (|D| (Array Int Int)) (|E| Int) (|F| Int) (|G| Int) (|K2| Int) (|I| Int) (|J| Int) (|K| Int) (|L| Int) (|M| Int) (|L2| (Array Int Int)) (|O| (Array Int Int)) (|P| Int) (|Q| Int) (|R| Int) (|S| Int) (|T| Int) (|U| Int) (|V| Int) (|M2| Int) (|X| Int) (|Y| Int) (|Z| Int) (|A1| Int) (|B1| Int) (|N2| Int) (|D1| Int) (|O2| (Array Int Int)) (|F1| (Array Int Int)) (|G1| (Array Int Int)) (|H1| (Array Int Int)) (|I1| Int) (|J1| Int) (|K1| Int) (|L1| Int) (|M1| (Array Int Int)) (|N1| (Array Int Int)) (|O1| Int) (|P1| Int) (|Q1| Int) (|R1| Int) (|S1| Int) (|T1| Int) (|U1| Int) (|V1| Int) (|W1| Int) (|X1| Int) (|Y1| Int) (|Z1| Int) (|A2| Int) (|B2| Int) (|C2| Int) (|D2| Int) (|E2| Int) (|F2| Int) (|G2| Int) (|H2| Int) (|I2| Bool) (|.loc.4| Bool) (|.loc.5| Bool) (|.loc.6| Bool) (|J2_0| (Array Int Int)) (|K2_0| (Array Int Int)) (|.x.460| Int) (|.x.462| (Array Int Int)) (|.x.463| Int) (|.x.464| Int) (|.x.465| Int) (|.x.467| Int) (|.x.468| Int) (|.x.469| Int) (|.x.470| Int) (|.x.471| Int) (|.x.473| (Array Int Int)) (|.x.474| Int) (|.x.475| Int) (|.x.476| Int) (|.x.477| Int) (|.x.478| Int) (|.x.479| Int) (|.x.480| Int) (|.x.482| Int) (|.x.483| Int) (|.x.484| Int) (|.x.485| Int) (|.x.486| Int) (|.x.488| Int) (|.x.490| (Array Int Int)) (|.x.492| (Array Int Int)) (|.x.493| Int) (|.x.494| Int) (|.x.495| Int) (|.x.498| (Array Int Int)) (|.x.496| Int) (|.x.506| Int) (|.x.461| (Array Int Int)) (|.x.517| Int) (|.x.491| (Array Int Int)) (|.x.497| (Array Int Int)) (|.x.515| Int) (|.x.514| Int) (|.x.499| Int) (|.x.459| Int) (|.x.504| Int) (|.x.508| Int) (|.x.509| Int) (|.x.502| Int) (|.x.501| Int) (|.x.487| Int) (|.x.507| Int) (|.x.518| Int) (|.x.472| (Array Int Int)) (|.x.489| (Array Int Int)) (|.x.500| Int) (|.x.516| Int) (|I2_7| Bool) (|.x.466| Int) (|.x.481| Int) (|.x.512| Int) (|.x.511| Int) (|.x.513| Int) (|.x.510| Int) (|.x.505| Int) (|.x.503| Int) (|.loc.7| Bool) (|.loc.8| Bool) (|.loc.9| Bool) (|.xtv.1| (Array Int Int)) (|.xtv.2| (Array Int Int))) (=> (and (state |J2| |B| |C| |D| |E| |F| |G| |K2| |I| |J| |K| |L| |M| |L2| |O| |P| |Q| |R| |S| |T| |U| |V| |M2| |X| |Y| |Z| |A1| |B1| |N2| |D1| |O2| |F1| |G1| |H1| |I1| |J1| |K1| |L1| |M1| |N1| |O1| |P1| |Q1| |R1| |S1| |T1| |U1| |V1| |W1| |X1| |Y1| |Z1| |A2| |B2| |C2| |D2| |E2| |F2| |G2| |H2| |I2| |.loc.4| |.loc.5| |.loc.6| |J2_0| |K2_0|) (let ((.def_76 (not .loc.4))) (let ((.def_77 (not .loc.5))) (let ((.def_79 (not .loc.6))) (let ((.def_195 (+ .x.506 8))) (let ((.def_224 (= (select (select .x.491 .x.514) (+ .x.515 8)) .x.499))) (let ((.def_227 (= .x.459 .x.504))) (let ((.def_230 (= .x.508 .x.509))) (let ((.def_232 (= .x.517 .x.502))) (let ((.def_234 (= .x.504 .x.501))) (let ((.def_236 (= .x.508 .x.487))) (let ((.def_238 (= .x.506 .x.507))) (let ((.def_239 (= .x.514 .x.502))) (let ((.def_240 (= .x.515 .x.507))) (let ((.def_241 (= .x.506 0))) (let ((.def_243 (= .x.517 0))) (let ((.def_257 (and (= .x.461 (store C .x.517 (store (select C .x.517) .def_195 (select (select .x.461 .x.517) .def_195)))) (and (= (store G1 .x.517 (store (select G1 .x.517) .def_195 0)) .x.491) (and (= .x.497 (store M1 .x.517 (store (select M1 .x.517) .def_195 (select (select .x.497 .x.517) .def_195)))) (and .def_224 (and .def_227 (and .def_230 (and .def_232 (and .def_234 (and .def_236 (and .def_238 (and .def_239 (and .def_240 (or (not .def_241) (not .def_243)))))))))))))))) (let ((.def_284 (and (= (store J2_0 .x.518 12) .x.472) (and (= (store K2_0 .x.518 1) .x.489) (and (= (select K2_0 .x.518) 0) (and (= .x.500 0) (and (= .x.506 .x.500) (and (= .x.517 .x.518) (and (not (= .x.518 0)) (not (<= .x.518 .x.485))))))))))) (let ((.def_287 (= F2 .x.516))) (let ((.def_289 (and .def_287 I2_7))) (let ((.def_305 (= .x.459 0))) (let ((.def_308 (select M1 .x.459))) (let ((.def_323 (select C .x.459))) (let ((.def_336 (or I2 (and (= K2_0 (store (store O2 0 0) .x.459 1)) (and (= J2_0 (store L2 .x.459 12)) (and (and (and (and (and (and (and (and (and (and (= .x.466 0) (not (<= A1 .x.459))) (= .x.487 0)) (= .x.481 0)) (not .def_305)) (= (select .def_308 .x.487) 0)) (= (select (select G1 .x.459) (+ .x.487 8)) 0)) (= (select .def_308 (+ .x.487 4)) 0)) (= (select .def_323 .x.487) 0)) (= (select .def_323 (+ .x.487 4)) 0)) (= (ite .def_305 0 (select O2 .x.459)) 0))))))) (let ((.def_340 (= .x.499 0))) (let ((.def_342 (or I2 (not .def_340)))) (let ((.def_351 (= I2 I2_7))) (let ((.def_353 (= H2 .x.518))) (let ((.def_355 (= G2 .x.517))) (let ((.def_357 (= E2 .x.515))) (let ((.def_359 (= D2 .x.514))) (let ((.def_361 (= Y1 .x.509))) (let ((.def_363 (= X1 .x.508))) (let ((.def_365 (= W1 .x.507))) (let ((.def_367 (= V1 .x.506))) (let ((.def_369 (= T1 .x.504))) (let ((.def_371 (= R1 .x.502))) (let ((.def_373 (= Q1 .x.501))) (let ((.def_375 (= P1 .x.500))) (let ((.def_377 (= O1 .x.499))) (let ((.def_379 (= M1 .x.497))) (let ((.def_381 (= G1 .x.491))) (let ((.def_383 (= O2 .x.489))) (let ((.def_385 (= N2 .x.487))) (let ((.def_387 (= M2 .x.481))) (let ((.def_389 (= L2 .x.472))) (let ((.def_391 (= K2 .x.466))) (let ((.def_393 (= C .x.461))) (let ((.def_395 (= J2 .x.459))) (let ((.def_400 (= A2 .x.511))) (let ((.def_402 (= C2 .x.513))) (let ((.def_405 (= Z1 .x.510))) (let ((.def_408 (= U1 .x.505))) (let ((.def_411 (= S1 .x.503))) (let ((.def_427 (and (and (and (and (= .x.506 .x.511) (= .x.517 .x.510)) (= .x.511 .x.505)) (= .x.513 (select (select .x.491 .x.503) (+ .x.505 8)))) (= .x.510 .x.503)))) (let ((.def_429 (= .x.513 1))) (let ((.def_454 (= B2 .x.512))) (let ((.def_456 (+ E2 8))) (let ((.def_475 (or I2 (and (= .x.461 (store C D2 (store (select C D2) .def_456 (select (select .x.461 D2) .def_456)))) (and (= .x.491 (store G1 D2 (store (select G1 D2) .def_456 1))) (= .x.497 (store M1 D2 (store (select M1 D2) .def_456 (select (select .x.497 D2) .def_456))))))))) (let ((.def_486 (and .def_234 (and .def_224 (and .def_238 (and .def_227 (and .def_232 (and .def_236 (and .def_230 (and .def_239 .def_240)))))))))) (let ((.def_508 (+ U1 8))) (let ((.def_527 (or I2 (and (= .x.461 (store C S1 (store (select C S1) .def_508 (select (select .x.461 S1) .def_508)))) (and (= .x.491 (store G1 S1 (store (select G1 S1) .def_508 0))) (= .x.497 (store M1 S1 (store (select M1 S1) .def_508 (select (select .x.497 S1) .def_508))))))))) (let ((.def_536 (and .def_411 (and .def_408 (and .def_405 (and .def_400 (and .def_287 .def_402))))))) (let ((.def_561 (not .loc.7))) (let ((.def_565 (not .loc.8))) (let ((.def_570 (and .def_287 (and I2 I2_7)))) (let ((.def_592 (not .loc.9))) (let ((.def_600 (and .def_79 (and .def_77 (and .def_76 (and .def_336 .def_536)))))) (let ((.def_618 (or .def_284 I2_7))) (let ((.def_685 (or I2_7 .def_340))) (and (and (= B .x.460) (and (= D .x.462) (and (= E .x.463) (and (= F .x.464) (and (= G .x.465) (and (= I .x.467) (and (= J .x.468) (and (= K .x.469) (and (= L .x.470) (and (= M .x.471) (and (= O .x.473) (and (= P .x.474) (and (= Q .x.475) (and (= R .x.476) (and (= S .x.477) (and (= T .x.478) (and (= U .x.479) (and (= V .x.480) (and (= X .x.482) (and (= Y .x.483) (and (= Z .x.484) (and (= A1 .x.485) (and (= B1 .x.486) (and (= D1 .x.488) (and (= F1 .x.490) (and (= H1 .x.492) (and (= I1 .x.493) (and (= J1 .x.494) (and (= K1 .x.495) (and (= N1 .x.498) (= L1 .x.496))))))))))))))))))))))))))))))) (or (or (or (or (or (or (or (and (or (and (or (and .def_77 (or (and (or (and .def_79 (and (and (or I2 .def_257) (and (or I2 .def_284) (and .def_289 .def_336))) .def_342)) (and (or I2 (= .x.512 0)) (and (and (and (and (and (and (and (and (and (and (and (and (and (and (and (and (and (and (and (and (and (and (and (and .loc.6 (or I2_7 (= .x.516 .x.512))) .def_351) .def_353) .def_355) .def_357) .def_359) .def_361) .def_363) .def_365) .def_367) .def_369) .def_371) .def_373) .def_375) .def_377) .def_379) .def_381) .def_383) .def_385) .def_387) .def_389) .def_391) .def_393) .def_395))) (and .def_76 (and (and (and (and .def_400 .def_402) .def_405) .def_408) .def_411))) (and (and (and (or I2 .def_427) (and (or I2 (not .def_429)) (and .def_395 (and .def_391 (and .def_389 (and .def_387 (and .def_385 (and .def_383 (and .def_375 (and .def_373 (and .def_371 (and .def_369 (and .def_367 (and .def_365 (and .def_363 (and .def_361 (and .def_359 (and .def_357 (and .def_355 (and .def_353 (and .def_79 (and .loc.4 .def_289)))))))))))))))))))))) .def_454) .def_475))) (and (and (or I2 .def_486) (and .def_454 (and .def_395 (and .def_391 (and .def_389 (and .def_387 (and .def_385 (and .def_383 (and .def_375 (and .def_367 (and .def_355 (and .def_353 (and .def_79 (and .def_76 (and .loc.5 (and .def_342 (and .def_411 (and .def_408 (and .def_405 (and .def_289 .def_400)))))))))))))))))))) .def_527)) .loc.7) (and (and .def_475 (and .def_454 (and .def_395 (and .def_391 (and .def_389 (and .def_387 (and .def_385 (and .def_383 (and .def_375 (and .def_373 (and .def_371 (and .def_369 (and .def_367 (and .def_365 (and .def_363 (and .def_361 (and .def_359 (and .def_357 (and .def_355 (and .def_353 (and .def_351 (and .def_79 (and .loc.5 (and .loc.4 .def_536)))))))))))))))))))))))) .def_561)) (and .def_565 .loc.9)) (and (and .def_527 (and .def_454 (and .def_395 (and .def_391 (and .def_389 (and .def_387 (and .def_385 (and .def_383 (and .def_375 (and .def_367 (and .def_355 (and .def_353 (and .loc.8 (and .loc.7 (and .def_79 (and .def_76 (and .loc.5 (and .def_411 (and .def_408 (and .def_405 (and .def_400 .def_570))))))))))))))))))))) .def_592)) (and (and (or I2_7 (and .def_241 .def_243)) (and .def_561 (and .def_393 (and .def_381 (and .def_379 (and .def_377 (and .def_373 (and .def_371 (and .def_369 (and .def_365 (and .def_363 (and .def_361 (and .def_359 (and .def_357 (and .def_351 (and .def_565 (and .loc.9 .def_600))))))))))))))))) .def_618)) (and .def_592 (and .def_565 (and .loc.7 (and .def_79 (and .def_77 (and .def_76 (and .def_336 (and .def_411 (and .def_408 (and .def_405 (and .def_400 (and .def_402 .def_570))))))))))))) (and .def_592 (and .def_561 (and .def_475 (and .def_454 (and .def_395 (and .def_391 (and .def_389 (and .def_387 (and .def_385 (and .def_383 (and .def_375 (and .def_373 (and .def_371 (and .def_369 (and .def_367 (and .def_365 (and .def_363 (and .def_361 (and .def_359 (and .def_357 (and .def_355 (and .def_353 (and .loc.8 (and .def_79 (and .def_77 (and .loc.4 .def_570))))))))))))))))))))))))))) (and (or I2_7 .def_486) (and (and .def_592 (and .def_527 (and .def_454 (and .def_395 (and .def_391 (and .def_389 (and .def_387 (and .def_385 (and .def_383 (and .def_375 (and .def_367 (and .def_355 (and .def_353 (and .def_351 (and .loc.8 (and .loc.7 (and .def_79 (and .def_76 (and .loc.5 (and .def_411 (and .def_408 (and .def_405 (and .def_287 .def_400))))))))))))))))))))))) .def_685))) (and (or .def_257 I2_7) (and .def_685 (and .def_618 (and .def_592 (and .def_351 (and .def_565 (and .loc.7 .def_600)))))))) (and (or I2_7 .def_427) (and (or I2_7 .def_429) (and .def_592 (and .def_561 (and .def_475 (and .def_454 (and .def_395 (and .def_391 (and .def_389 (and .def_387 (and .def_385 (and .def_383 (and .def_375 (and .def_373 (and .def_371 (and .def_369 (and .def_367 (and .def_365 (and .def_363 (and .def_361 (and .def_359 (and .def_357 (and .def_355 (and .def_353 (and .def_351 (and .loc.8 (and .def_79 (and .def_77 (and .loc.4 .def_287))))))))))))))))))))))))))))))))))))))))))))))))))))))))))))))))))))))))))))))))))))))))))))))))))))) (state |.x.459| |.x.460| |.x.461| |.x.462| |.x.463| |.x.464| |.x.465| |.x.466| |.x.467| |.x.468| |.x.469| |.x.470| |.x.471| |.x.472| |.x.473| |.x.474| |.x.475| |.x.476| |.x.477| |.x.478| |.x.479| |.x.480| |.x.481| |.x.482| |.x.483| |.x.484| |.x.485| |.x.486| |.x.487| |.x.488| |.x.489| |.x.490| |.x.491| |.x.492| |.x.493| |.x.494| |.x.495| |.x.496| |.x.497| |.x.498| |.x.499| |.x.500| |.x.501| |.x.502| |.x.503| |.x.504| |.x.505| |.x.506| |.x.507| |.x.508| |.x.509| |.x.510| |.x.511| |.x.512| |.x.513| |.x.514| |.x.515| |.x.516| |.x.517| |.x.518| |I2_7| |.loc.7| |.loc.8| |.loc.9| |.xtv.1| |.xtv.2|))))
(assert (forall ((|J2| Int) (|B| Int) (|C| (Array Int Int)) (|D| (Array Int Int)) (|E| Int) (|F| Int) (|G| Int) (|K2| Int) (|I| Int) (|J| Int) (|K| Int) (|L| Int) (|M| Int) (|L2| (Array Int Int)) (|O| (Array Int Int)) (|P| Int) (|Q| Int) (|R| Int) (|S| Int) (|T| Int) (|U| Int) (|V| Int) (|M2| Int) (|X| Int) (|Y| Int) (|Z| Int) (|A1| Int) (|B1| Int) (|N2| Int) (|D1| Int) (|O2| (Array Int Int)) (|F1| (Array Int Int)) (|G1| (Array Int Int)) (|H1| (Array Int Int)) (|I1| Int) (|J1| Int) (|K1| Int) (|L1| Int) (|M1| (Array Int Int)) (|N1| (Array Int Int)) (|O1| Int) (|P1| Int) (|Q1| Int) (|R1| Int) (|S1| Int) (|T1| Int) (|U1| Int) (|V1| Int) (|W1| Int) (|X1| Int) (|Y1| Int) (|Z1| Int) (|A2| Int) (|B2| Int) (|C2| Int) (|D2| Int) (|E2| Int) (|F2| Int) (|G2| Int) (|H2| Int) (|I2| Bool) (|.loc.4| Bool) (|.loc.5| Bool) (|.loc.6| Bool) (|J2_0| (Array Int Int)) (|K2_0| (Array Int Int)) (|.x.460| Int) (|.x.462| (Array Int Int)) (|.x.463| Int) (|.x.464| Int) (|.x.465| Int) (|.x.467| Int) (|.x.468| Int) (|.x.469| Int) (|.x.470| Int) (|.x.471| Int) (|.x.473| (Array Int Int)) (|.x.474| Int) (|.x.475| Int) (|.x.476| Int) (|.x.477| Int) (|.x.478| Int) (|.x.479| Int) (|.x.480| Int) (|.x.482| Int) (|.x.483| Int) (|.x.484| Int) (|.x.485| Int) (|.x.486| Int) (|.x.488| Int) (|.x.490| (Array Int Int)) (|.x.492| (Array Int Int)) (|.x.493| Int) (|.x.494| Int) (|.x.495| Int) (|.x.498| (Array Int Int)) (|.x.496| Int) (|.x.506| Int) (|.x.461| (Array Int Int)) (|.x.517| Int) (|.x.491| (Array Int Int)) (|.x.497| (Array Int Int)) (|.x.515| Int) (|.x.514| Int) (|.x.499| Int) (|.x.459| Int) (|.x.504| Int) (|.x.508| Int) (|.x.509| Int) (|.x.502| Int) (|.x.501| Int) (|.x.487| Int) (|.x.507| Int) (|.x.518| Int) (|.x.472| (Array Int Int)) (|.x.489| (Array Int Int)) (|.x.500| Int) (|.x.516| Int) (|I2_7| Bool) (|.x.466| Int) (|.x.481| Int) (|.x.512| Int) (|.x.511| Int) (|.x.513| Int) (|.x.510| Int) (|.x.505| Int) (|.x.503| Int) (|.loc.7| Bool) (|.loc.8| Bool) (|.loc.9| Bool) (|.xtv.1| (Array Int Int)) (|.xtv.2| (Array Int Int))) (=> (state |J2| |B| |C| |D| |E| |F| |G| |K2| |I| |J| |K| |L| |M| |L2| |O| |P| |Q| |R| |S| |T| |U| |V| |M2| |X| |Y| |Z| |A1| |B1| |N2| |D1| |O2| |F1| |G1| |H1| |I1| |J1| |K1| |L1| |M1| |N1| |O1| |P1| |Q1| |R1| |S1| |T1| |U1| |V1| |W1| |X1| |Y1| |Z1| |A2| |B2| |C2| |D2| |E2| |F2| |G2| |H2| |I2| |.loc.4| |.loc.5| |.loc.6| |J2_0| |K2_0|) (not (and I2 (and .loc.6 (and .loc.4 (not .loc.5))))))))
(check-sat)
